
Log started (V12.10.0.0) Sun Apr  4 08:48:10 2021


Problem 'asset.lp' read.
Read time = 0.00 sec. (0.20 ticks)
New value for default parallel thread count: 1
New value for time limit in seconds: 300
Version identifier: 12.10.0.0 | 2019-11-26 | 843d4de
CPXPARAM_Threads                                 1
CPXPARAM_TimeLimit                               300
Found incumbent of value -0.883919 after 0.00 sec. (0.10 ticks)
Tried aggregator 3 times.
MIP Presolve eliminated 362 rows and 156 columns.
MIP Presolve modified 1730 coefficients.
Aggregator did 647 substitutions.
Reduced MIP has 907 rows, 968 columns, and 4216 nonzeros.
Reduced MIP has 820 binaries, 106 generals, 0 SOSs, and 0 indicators.
Presolve time = 0.01 sec. (8.67 ticks)
Probing fixed 170 vars, tightened 32 bounds.
Probing time = 0.01 sec. (4.19 ticks)
Cover probing fixed 0 vars, tightened 100 bounds.
Tried aggregator 1 time.
MIP Presolve eliminated 238 rows and 234 columns.
MIP Presolve modified 264 coefficients.
Reduced MIP has 669 rows, 733 columns, and 2935 nonzeros.
Reduced MIP has 618 binaries, 73 generals, 0 SOSs, and 0 indicators.
Presolve time = 0.00 sec. (1.84 ticks)
Probing time = 0.00 sec. (2.51 ticks)
Tried aggregator 1 time.
Detecting symmetries...
MIP Presolve modified 88 coefficients.
Reduced MIP has 669 rows, 733 columns, and 2935 nonzeros.
Reduced MIP has 618 binaries, 73 generals, 0 SOSs, and 0 indicators.
Presolve time = 0.00 sec. (2.04 ticks)
Probing time = 0.00 sec. (2.51 ticks)
Clique table members: 2447.
MIP emphasis: balance optimality and feasibility.
MIP search method: dynamic search.
Parallel mode: none, using 1 thread.
Root relaxation solution time = 0.01 sec. (6.72 ticks)

        Nodes                                         Cuts/
   Node  Left     Objective  IInf  Best Integer    Best Bound    ItCnt     Gap

*     0+    0                           -0.8839      400.2357              --- 
      0     0      279.8230   146       -0.8839      279.8230      424     --- 
      0     0      275.0697   146       -0.8839     Cuts: 267      677     --- 
      0     0      271.1204   146       -0.8839     Cuts: 227      890     --- 
      0     0      269.4830   146       -0.8839     Cuts: 209     1034     --- 
      0     0      268.3900   146       -0.8839     Cuts: 140     1131     --- 
      0     0      267.1961   146       -0.8839     Cuts: 129     1197     --- 
Detecting symmetries...
      0     0      266.3054   146       -0.8839     Cuts: 107     1250     --- 
      0     0      265.9343   146       -0.8839      Cuts: 80     1295     --- 
      0     0      265.5492   146       -0.8839      Cuts: 69     1337     --- 
      0     0      264.0899   146       -0.8839      Cuts: 59     1390     --- 
      0     0      263.7700   146       -0.8839      Cuts: 57     1439     --- 
      0     0      263.4849   146       -0.8839     Cuts: 105     1493     --- 
      0     0      263.4479   146       -0.8839      Cuts: 76     1530     --- 
      0     0      263.3187   146       -0.8839      Cuts: 25     1558     --- 
      0     0      263.2959   146       -0.8839      Cuts: 39     1574     --- 
      0     0      263.2724   146       -0.8839      Cuts: 21     1596     --- 
      0     0      263.2293   146       -0.8839     Cuts: 114     1637     --- 
*     0+    0                          181.1211      263.2293            45.33%
      0     0      263.1970   146      181.1211      Cuts: 99     1666   45.32%
*     0+    0                          181.1236      263.1970            45.31%
*     0+    0                          181.1237      263.1970            45.31%
      0     0        cutoff            181.1237      263.1970     1666   45.31%
Detecting symmetries...
      0     2      263.1970   187      181.1237      263.1963     1666   45.31%
Elapsed time = 0.27 sec. (277.99 ticks, tree = 0.01 MB, solutions = 3)
*    74    50      integral     0      188.1550      262.8207     4268   39.68%
*   110+   66                          207.6379      262.6390            26.49%
*   120    73      integral     0      207.6390      262.6390     6334   26.49%
*   220+  164                          207.6396      262.5849            26.46%
    234   176      256.7183   141      207.6396      262.5248    10259   26.43%
*   260+  186                          211.0237      262.5248            24.41%
*   360+  254                          214.7237      262.0819            22.06%
    380   276      242.0725   144      214.7237      262.0819    15060   22.06%

Performing restart 1

Repeating presolve.
Tried aggregator 2 times.
MIP Presolve modified 513 coefficients.
Aggregator did 9 substitutions.
Reduced MIP has 660 rows, 724 columns, and 2520 nonzeros.
Reduced MIP has 609 binaries, 73 generals, 0 SOSs, and 0 indicators.
Presolve time = 0.00 sec. (3.46 ticks)
Tried aggregator 1 time.
Reduced MIP has 660 rows, 724 columns, and 2520 nonzeros.
Reduced MIP has 609 binaries, 73 generals, 0 SOSs, and 0 indicators.
Presolve time = 0.00 sec. (1.94 ticks)
Represolve time = 0.02 sec. (14.02 ticks)
    496     0      241.7715   172      214.7237     Cuts: 242    22005   12.60%
    496     0      236.4309   172      214.7237     Cuts: 149    22258   10.11%
    496     0      235.5143   172      214.7237     Cuts: 101    22440    9.68%
    496     0      234.1457   172      214.7237     Cuts: 136    22585    9.05%
    496     0      232.9886   172      214.7237     Cuts: 101    22740    8.51%
    496     0      232.6771   172      214.7237      Cuts: 75    22816    8.36%
    496     0      232.1138   172      214.7237      Cuts: 96    22921    8.10%
    496     0      231.8142   172      214.7237      Cuts: 70    23026    7.96%
    496     0      231.6802   172      214.7237      Cuts: 97    23173    7.90%
    496     0      231.6605   172      214.7237      Cuts: 71    23234    7.89%
    496     0      231.6077   172      214.7237      Cuts: 40    23265    7.86%
    496     0      231.5165   172      214.7237      Cuts: 40    23388    7.82%
    496     0      231.3513   172      214.7237      Cuts: 65    23481    7.74%
    496     0      231.2379   172      214.7237      Cuts: 55    23520    7.69%
    496     0      231.1173   172      214.7237      Cuts: 31    23574    7.63%
    496     0      231.0042   172      214.7237      Cuts: 27    23616    7.58%
    496     0      230.9380   172      214.7237      Cuts: 35    23666    7.55%
    496     0      230.8499   172      214.7237      Cuts: 19    23714    7.51%
    496     0      230.7963   172      214.7237      Cuts: 40    23746    7.49%
    496     0      230.3889   172      214.7237      Cuts: 27    23824    7.30%
    496     0      229.6964   172      214.7237      Cuts: 40    23913    6.97%
    496     0      228.9637   172      214.7237      Cuts: 44    24009    6.63%
    496     0      228.8429   172      214.7237      Cuts: 48    24046    6.58%
    496     0      228.7826   172      214.7237      Cuts: 61    24099    6.55%
    496     0      228.6869   172      214.7237      Cuts: 68    24139    6.50%
    496     0      228.6262   172      214.7237      Cuts: 34    24193    6.47%
    496     0      228.5476   172      214.7237      Cuts: 79    24248    6.44%
    496     0      228.3985   172      214.7237      Cuts: 59    24304    6.37%
    496     0      228.2403   172      214.7237      Cuts: 24    24376    6.29%
    496     0      228.1758   172      214.7237      Cuts: 64    24399    6.26%
    496     0      228.0140   172      214.7237      Cuts: 23    24458    6.19%
    496     0      227.8685   172      214.7237     Cuts: 100    24512    6.12%
    496     0      227.1832   172      214.7237      Cuts: 55    24641    5.80%
    496     0      226.9910   172      214.7237      Cuts: 44    24711    5.71%
    496     0      226.9395   172      214.7237      Cuts: 47    24734    5.69%
    496     0      226.8861   172      214.7237      Cuts: 41    24763    5.66%
    496     0      226.8790   172      214.7237      Cuts: 25    24775    5.66%
    496     0      226.5701   172      214.7237      Cuts: 23    24823    5.52%
    496     0      226.1909   172      214.7237      Cuts: 39    24917    5.34%
    496     0      225.9818   172      214.7237      Cuts: 70    25003    5.24%
    496     0      225.9648   172      214.7237      Cuts: 42    25042    5.24%
    496     2      225.9648   141      214.7237      225.9642    25042    5.23%
    503     9      223.7108    85      214.7237      225.0254    25631    4.80%
    515    17      223.5025    82      214.7237      224.4515    26807    4.53%
    531    23      222.7101   110      214.7237      224.3355    27917    4.48%
*   546+   32                          215.3090      224.3355             4.19%
*   546+   32                          215.3091      224.3355             4.19%
*   566+   44                          217.0972      224.2670             3.30%
*   576+   48                          217.0975      224.2670             3.30%
*   576+   48                          217.0976      224.2670             3.30%
    594    60      222.6469   107      217.0976      223.9068    29714    3.14%
*   596+   39                          218.5782      223.9068             2.44%
*   626+   49                          218.7514      223.7506             2.29%
    652    52      219.8191   107      218.7514      222.7276    31453    1.82%

GUB cover cuts applied:  13
Clique cuts applied:  45
Cover cuts applied:  8
Implied bound cuts applied:  25
Flow cuts applied:  9
Mixed integer rounding cuts applied:  53
Zero-half cuts applied:  60
Lift and project cuts applied:  8
Gomory fractional cuts applied:  7

Root node processing (before b&c):
  Real time             =    0.27 sec. (278.20 ticks)
Sequential b&c:
  Real time             =    3.73 sec. (4065.39 ticks)
                          ------------
Total (root+branch&cut) =    4.00 sec. (4343.59 ticks)

Solution pool: 17 solutions saved.

MIP - Integer optimal, tolerance (0.0001/1e-06):  Objective =  2.1875139467e+02
Current MIP best bound =  2.1875268323e+02 (gap = 0.00128857, 0.00%)
Solution time =    4.00 sec.  Iterations = 34182  Nodes = 733 (11)
Deterministic time = 4343.59 ticks  (1086.25 ticks/sec)


Incumbent solution
Variable Name           Solution Value
F                           245.000000
f1                            0.918605
f2                           25.330000
y167                          1.000000
y214                          1.000000
y271                          1.000000
y109                          1.000000
y175                          1.000000
y81                           1.000000
y208                          1.000000
y146                          1.000000
y50                           1.000000
y29                           1.000000
y118                          1.000000
y68                           1.000000
y212                          1.000000
y5                            1.000000
y149                          1.000000
y204                          1.000000
y127                          1.000000
y49                           1.000000
s2                            6.000000
s7                            6.000000
s14                           6.000000
s22                           6.000000
s27                           6.000000
s30                           6.000000
s47                           6.000000
s67                           6.000000
s101                          6.000000
s110                          6.000000
s112                          6.000000
s114                          6.000000
s167                          6.581136
s179                          6.000000
s197                          6.000000
s214                          6.391785
s244                          6.000000
s271                          6.491060
s109                          6.885989
s175                          6.378959
s205                          6.010000
s81                           6.796999
s111                          6.050000
s181                          6.110000
s199                          6.110000
s208                          7.113334
s256                          6.140000
s119                          6.220000
s146                          6.262956
s50                           7.217555
s29                           7.147644
s131                          6.430000
s46                           6.440000
s118                          7.224338
s68                           6.560000
s212                          7.617349
s26                           6.650000
s226                          6.690000
s1                            6.750000
s5                            7.635431
s229                          6.780000
s149                          6.840000
s204                          7.846666
s127                          7.691615
s94                           6.940000
s49                           7.852593
s183                          6.960000
x10x50x1                      1.000000
x116x118x1                    1.000000
x257x208x1                    1.000000
x257x212x1                    1.000000
x216x175x1                    1.000000
x216x146x1                    1.000000
x142x167x1                    1.000000
x142x271x1                    1.000000
x9x146x1                      1.000000
x9x68x1                       1.000000
x224x214x1                    1.000000
x224x149x1                    1.000000
x242x175x2                    1.000000
x55x29x2                      2.000000
x8x81x2                       2.000000
x116x118x2                    1.000000
x231x208x2                    1.000000
x231x5x2                      1.000000
x222x167x2                    1.000000
x209x109x3                    2.000000
x10x50x3                      1.000000
x227x214x3                    1.000000
x227x149x3                    1.000000
x57x68x3                      1.000000
x222x271x3                    1.000000
x167x0x1                      1.000000
x167x49x2                     1.000000
x214x204x1                    1.000000
x214x49x3                     1.000000
x271x0x1                      1.000000
x271x127x3                    1.000000
x109x0x3                      2.000000
x175x0x1                      1.000000
x175x5x2                      1.000000
x81x0x2                       2.000000
x208x0x1                      1.000000
x208x0x2                      1.000000
x146x0x1                      1.000000
x146x127x1                    1.000000
x50x0x1                       1.000000
x50x0x3                       1.000000
x29x0x2                       2.000000
x118x0x1                      1.000000
x118x0x2                      1.000000
x68x0x1                       1.000000
x68x212x3                     1.000000
x212x0x1                      1.000000
x212x0x3                      1.000000
x5x0x2                        2.000000
x149x0x1                      1.000000
x149x204x3                    1.000000
x204x0x1                      1.000000
x204x0x3                      1.000000
x127x0x1                      1.000000
x127x0x3                      1.000000
x49x0x2                       1.000000
x49x0x3                       1.000000
s242                          4.792164
z242z47z2                     1.000000
z242z175z2                    1.000000
z242z29z2                     1.000000
z242z1z2                      1.000000
z242z5z2                      1.000000
s209                          5.063917
z209z109z3                    1.000000
s55                           5.214614
z55z29z2                      1.000000
z55z5z2                       1.000000
s10                           5.306187
z10z50z1                      1.000000
z10z50z3                      1.000000
s8                            5.217715
z8z81z2                       1.000000
s116                          5.541908
z116z118z1                    1.000000
z116z118z2                    1.000000
s257                          5.898255
z257z208z1                    1.000000
z257z212z1                    1.000000
s231                          5.920000
z231z208z2                    1.000000
z231z5z2                      1.000000
s216                          4.716730
z216z175z1                    1.000000
z216z146z1                    1.000000
s227                          4.793870
z227z214z3                    1.000000
z227z109z3                    1.000000
z227z226z3                    1.000000
z227z149z3                    1.000000
z227z183z3                    1.000000
s57                           4.740280
z57z47z3                      1.000000
z57z244z3                     1.000000
z57z131z3                     1.000000
z57z68z3                      1.000000
z57z226z3                     1.000000
z57z183z3                     1.000000
s142                          4.878440
z142z167z1                    1.000000
z142z271z1                    1.000000
s9                            4.878030
z9z146z1                      1.000000
z9z68z1                       1.000000
s222                          4.952430
z222z167z2                    1.000000
z222z271z3                    1.000000
z222z1z2                      1.000000
z222z5z2                      1.000000
z222z183z3                    1.000000
s224                          4.972380
z224z214z1                    1.000000
z224z149z1                    1.000000
z167z49z2                     1.000000
z214z204z1                    1.000000
z214z49z3                     1.000000
z271z127z3                    1.000000
z175z5z2                      1.000000
z146z127z1                    1.000000
z68z212z3                     1.000000
z149z204z3                    1.000000
All other variables in the range 1-1774 are 0.
